     60      4     35    589     26
     39     45     36     36
     25      4     46     31     19     41     31     12      6     20     45      0     33     12     16     58     30     21     26      2     22     34     14     25     30     10     57     12     38     39     12     15     43     41     41     31     59     27     32     39     48     26     22     41     12     31      8     11      5     44     33     25     36     19     56     42     21     33      7     38     42     26     41     36      5     49      7     31     35     16     26     11     54     25     59     56     23     37     21     45     55     43     28     11      6     58     21     55     57     45      7     45     23      0     39     19     36      8     59     54     50     43     26     10     14     10     51      3     44     21     19     36      8     53     10     55     38      0     44     22     17     47     56     16      1     42     22     49     59     58     39     43      5     49     52     30      9      1      5     43     57     55      7      1     27     32     54      7     58     45     50     44     34     33     29     48     13     29     37     32      1     24     10      5     23     47      3      4     26      0     56     30     23     17     55     35     29     38     33     21     16      1     56     37     27     46     12     28     38     29     24     41     12     23     55     18     12     26     48     31     42     40     20     19      5     41     30     46     18     32      4     10     17     48     38     10     29     47     54      1     12     42     10     34      2     29     16     48     15     44      0      3     58     20     19     59     57     14     13     26     32     19     16     52     28     56     44     13      5     16     20      2     46      7     39     23     53      3     44      6     45     14     40      0     33     47     16     36     46     53     24     25     47     13      4     58     35     23     43     33      6     12     56     19     25      1     28     23     22     46     59     50     40      5     44     23     18     39     29     16     30     17     56     18     12     47     35     14     41     19     55     26     57     22     16     39     54      6     56     45      9     48     41     58     39     22     17     14     21     45     25      1     29     51     21     53     54     48     28     10     33     30     19     58     50     11     26     29     47     43     15     25      9     36     22     53     33     38     39      9     15     34     58     26     41     37      6     50      7     49     23     12     26     24     31     59     41     43     21     46      6     57      9     24     32      1     52     51     49     55     18      0     50     39      8     51     57     10     30     17     53     27     31      3     41     30     51     18     32     49     58     40     51      7     21     30     50     58      6     16     10      0     49     45      6     14     28     39     27     34     46     33     49      9     30     27     32      1     17     51      0     42     16     56     47     24     38     49     39     45     16     29     14     25     57     17     28     39      3     20     25     20     35     45     38     59     22     15     27      6     12     57      5     50     29     24     47      3     38     37     30     10      1     16      7     32     39     29     20     21     56     46     50     12     45     23     13     24     54     16      7     42     34      6     12     56     36     25     24     33     54      0     33     59     36     50     40     26     17     34     39      2      0     57      9     47      1     35     24     14     22     23     11     18     58      1      4     39     43     54     19     44     34     52     33     36     51     11      8     19     45      9      5      0     58     17     15     59     55      6     41     22     36     56     28     30     24      3     18      1     34     56     12     54     23     12     29      5     10     49     13     35     45     14     50     20      2      1     43     22     12     52     59     49     33     21     56     55     35     10     37     31     11     16     36     12     21      0     51     39     53     18      7     58     43     29      9     49     17     41     52      5      7      0     29     43     18     44     16     13     33     46     39     49     56     34     16      1     27     48     40      9      0      4      8     46     13     11     16     28     40     22     44     36     34     31      7     45     11     14      2     35     32     20     18     21      3      0      8     18     16     38     57     11     31     30     47     49      3     51     16      6     46     54     19     18     35     24     17     50     31     27     34     41      6     59     52     25     48     55     54     58      6     18     43     13     42      1     11     40     33     49     23     32     41     35     39     52     47     46     50     16     31     22     10      4     13      0     55     22     31     33     25      9      1     34     37     30     52     38      7     55     36     41     18     32     39     34      6      9     31     26     37     23      7     40      6     34      5     17     14     36     59     43     38     32      9     17      8     42     46     20     12     58     15     25      7     13     34      8     55     16      9     37     29     39     17     31      1     38     51     44     23      3     59     49      8     33     22     30     50     35      1      2     18      8     42     37     44     46     50     23     57     30     32     48     36      8      2     37     51     15     17     54     20     49     55      1     19      0     59     29     13     40     36     25     57     43     10     44     42      8     25      6     50     42     44     35      1     46     30     34     47     43     19      5     27      1      8      3     20     46     15     47     51     38      2     51     21     14     23      9     46     13     25     44      7     11     12     42
      8     61    158     12     67     -6     57      2    111     54     47    111     88     65    103    -22     50     72     65    119      0     44    -11     28      7     68    120     37    -22    113     -3    122      1    115     -7    120     10    -29     72      3     65    119     73     43     36     95     99     59    -20     27     15    117     58     26      8     68     50     -8     50     32     26    111     13     16    -30     48    103     -3    -26     67    120    -15     10     28      3     93    104     93     25      6     38     42     -9     96     52     36    117     99     96     11      2    -31     77    120     79     35     65     67    -15     -7    -18     -6    -27      8      7    -25     47     28     86     60
     10     13     13     15     14	    401     73     34     35      7      0      0      0      0      0      0      0      0      0      0      0      0      0      0      0      0     71      0      0      0      0      0      0      0      0      0      0      0      0     52    -18      0    -57      0      0      0      0      0      0      0      0      0      0      0      0      0      0      0    -11      0      0      0      0      0      0     41      0      0      0      0
     12     13     11     14     13	    268    123     20     29      5      0      0     70    198      0      0    176      0      0      0      0      0      0      0      0      0      0      0      0    -48      0      0      0      1      0      0      0      0      0     39      0      0      0      0      0     64      0    211      0      0    -36    171      0    173      0      0      0      0      0     28      0     68      0      0      0      0      0      0    133     94
      6     13     12     15     14	    158     55     23     30      4      0     70      0      0      0      0    102      0      0      0      0      0      0     28      0     11      0      0      0      0      0      0      0      3      0      0      0      0     -9      0      0      0      0      0      0     -3     45      0      0      0      0      0      0      7      0      0      0      0      0      0      0    -28     77      0      0      0      0      0      0    114
     11     15     14     11     14	    371    208     25     27     10      0    198      0      0      0      0      7    -36      0      0    155      0      0      0      0      0      0      0      0      0      0      0      0      0      0      0      0      0      0      0      0      0    119      0    -45      0    161      0      0      0      0    181     22      0      0      0      0      0      0     15     20      0      0      0    -67     76      0      0      0      0
     10     15     15     13     10	    304     95     29     34      9      0      0      0      0      0      0      0    154      0      0      0      0      0     28      0      0      0     93      0    189      0      0      0    142      0      0      0      0      0      0      0      0     38      0      0      0      0    133      0      0      0      0      0     39      0      0    136      0      0      0     84      0      0      0      0      0      0      0      0      0
     12     11     13     12     14	    261    129     14     17      1      0      0      0      0      0      0      0    -42      0      0      0    -25     70      0      0      0      0      0      0    147     84      0      0      0      0      0      0      0      0      0      0      0      0      0      0      0      0      0      0    130    164      0      0      0      0      8    109     -8    191      0    151      0      0      0      0      0      0    108      0      0
      9     13     14     14     11	    276     98     34     34      6      0    176    102      7      0      0      0      0    -55      0      0      0     56      0      0      0      0      0      0      0      0      0     47      0      0      0    143      0      0      0      0      0      0      0    149      0      0      0     55      0      0      0      0      0      0      0      0      0    105      0      0     37      0    163      0      0      0      0    136      0
      8     12     12     10     14	    217    148     25     31      2      0      0      0    -36    154    -42      0      0      0      0      0      0      0      0      0      0      0      0     65      0      0      0      0    101      0      0      0      0      0      0    -30    133      0      0      0      0      0      0      0     42      0      0      0    -30    120     -3      0      0      0      0      0      0      0      0    -33      0    -31     43      0      0
     10     13     13     15     12	    453    172     26     30      9      0      0      0      0      0      0    -55      0      0      0      0      0      0      0      0      0      0      0    157      0      0    251      0      0      0    -78      0      0      0      0      0      0    124      0     -2     57    263      0      0      0    -45      0      0      0      0     17      0      0     68     -2     -7      0      0      0      0      0      0      0      0      0
      6     11     14     11     13	    256     70     31     33      9      0      0      0      0      0      0      0      0      0      0      0     60      0      0      0      0     60      0      0     73      0      0      0      0    -16      0    137    125     97      0      0    204     95      0     40      0     92      0     72    -35      0      0    163      0      0      0      0      0      0      0     25     87      0      0      0      0      0      0     65      0
     10     10     11     11     12	    249     98     29     29      5      0      0      0    155      0      0      0      0      0      0      0      0      0      0      0      0    -16      0      0     72      0     53      0      0      0      0      0      0      0      0      0      0      0      0      0      0      0      0      0      0    145      0      0     50      0      0      0      0     99      0      0      0      0      0      0      0      0      0    161     -6
      9     15     14     11     11	    308     68     26     27      3      0      0      0      0      0    -25      0      0      0     60      0      0      0      0    -12    137      0      0    -12      0      0      0      0      0      0      0      0      0      0      0      0      0      0      0      0      0      0      0      0      0      0      0      0      0      0      0      0      0      0      0      0      0      0      0      0      0      0      0      0      0
      7     10     11     14     15	    384    159     22     23      1      0      0      0      0      0     70     56      0      0      0      0      0      0      0      0      0      0      0     -4      0      0      0      0      0      0      0      0    -19      0      0      0      0      0      0      0     64      0      0      0      9      0      0      0      0      0      0      0     83      0      0      0      0      0      0      0      0      0     -3      0      0
      6     11     12     12     12	    360    121     19     30      1      0      0     28      0     28      0      0      0      0      0      0      0      0      0      0      0    109     11      0     11      0      0      0      0     59      0      0      0      0      0     13      0      0      0      0      0      0      0      0      0      0    -15      0      0      0      0     -2      0      0      0      0      0      0    121     80      0      0      0    144     98
      8     13     14     11     14	    182    113     11     14      8      0      0      0      0      0      0      0      0      0      0      0    -12      0      0      0     22      0    115      0      0      0     94      0      0      0      0      0     73      0     76      0     31      0     95      0      0      0      0      0      0      0      8      0      0      0      0     78      0      0      0      0      0      0      0      0      0      9      0    124      0
      9     11     13     11     10	    487    187     12     34      4      0      0     11      0      0      0      0      0      0      0      0    137      0      0     22      0      0      0      0      0      0      0      0      0      0      0      0      0      0      0      0      0      0      0    113      0      0      0      0    -33      0      0      0      0      0      0      0      0      0      0      0      0      0      0      0      0      0      0      0     93
     12     13     11     15     10	    171     89     25     32      9     71      0      0      0      0      0      0      0      0     60    -16      0      0    109      0      0      0      0      3    -26      0     30      0      0      0     -2      0      0      0    116      0      0      0      0     76      0      0      0     -9      0      0      0      0      0      0      0      0      0     17      0     60      0      0      0      0      0      0      0     34      0
      8     13     14     10     11	    493    144     31     31      9      0      0      0      0     93      0      0      0      0      0      0      0      0     11    115      0      0      0      0      0     68      0      0      0      0      0    -17      0      0      0      9      0      0      0      0      0      0      0      0      0      0     91      0      0      0      0      0      0      0      0    -23     24      0    -68      0      0      0      0    103    121
      6     13     11     14     15	    389    248     30     34      2      0      0      0      0      0      0      0     65    157      0      0    -12     -4      0      0      0      3      0      0      0      0     38    -22      0      0    112      0      0    171      0      0      1      0      0    128      0      0      0      0      0      0      0     55    179     23      0      0      0      0      0      0    109    111    128      0      0      0      0      0      0
      6     10     12     14     13	    469     98     22     22      6      0    -48      0      0    189    147      0      0      0     73     72      0      0     11      0      0    -26      0      0      0      0      0      0      0      0      0      0      0      0      0      0      0      0      0      0     82      0      0      0      0      0      0      0      0      0      0      0      0      0     86      0      0      0      0      0      0      0      0      0      0
      8     14     10     11     12	    131     80     17     21     10      0      0      0      0      0     84      0      0      0      0      0      0      0      0      0      0      0     68      0      0      0      0      0      0      0      0     23      0      0      0     33      0     68     -5      0      0    -24     -1      0      0     84      0      0      0      0     77      0      0     29      0      0     40      0      0     33      0      0     46      0      0
     10     12     15     11     10	    489     72     10     23      3      0      0      0      0      0      0      0      0    251      0     53      0      0      0     94      0     30      0     38      0      0      0      0      0      0      0      0      0      0      0      0      0      0      0     37      0      0      0      0      0      0      0      0      0      0     20    155      0    -25      0    145      0      0      0      0      0     97      0      0    107
      9     10     13     12     14	    186     79     17     33     10      0      0      0      0      0      0     47      0      0      0      0      0      0      0      0      0      0      0    -22      0      0      0      0      0      0     37      0      0      0      0      0      0      0      0      0     37      0     61     89      0      0    114    124      0      0      0      0     -6      0      0      0      0      0      0      0      0    -24      0     50      0
     12     12     13     10     12	    192    132     24     34      5      0      1      3      0    142      0      0    101      0      0      0      0      0      0      0      0      0      0      0      0      0      0      0      0      0      0      0      0    123      0      0     46    121      0     43      0     67     31    -15      0      0      0      0      0      0      0      0      0      0     -6     51      0      0      0      0      0      0     39      0      0
      9     14     12     12     14	    219     95     26     27      6      0      0      0      0      0      0      0      0      0    -16      0      0      0     59      0      0      0      0      0      0      0      0      0      0      0      0      0      0      0      0      0      0    123      0      0      0      0      0    100      0      0      0    -29      0      0      0      0     50      0      0      0      0      0     16      0      0      8      0      1      0
     11     10     12     15     13	    412    191     31     32      2      0      0      0      0      0      0      0      0    -78      0      0      0      0      0      0      0     -2      0    112      0      0      0     37      0      0      0      0     -4      9      0      0      0      0    159      0      0      0      0      0      0    147      0      0      0    -24      0      0      0      0     60      0      0      0      0      0     34      0      0      0      0
      9     13     13     13     13	    272     81     10     34     10      0      0      0      0      0      0    143      0      0    137      0      0      0      0      0      0      0    -17      0      0     23      0      0      0      0      0      0      0      0      0      0      0      0      0     30     21      0      0     92      0      0    162    188      0      0      0      0      0      0      0      0      0      0      0      0      0      0      0    140     27
      7     11     12     14     11	    401    148     26     27      5      0      0      0      0      0      0      0      0      0    125      0      0    -19      0     73      0      0      0      0      0      0      0      0      0      0     -4      0      0      0      0      0      0    131      0      0      0      0     26      0      0      0    -66      0      0    172      0      0      0      0      0     42      0      0      0      0      0    136     42      0      0
      8     14     13     14     10	    270    124     24     28      2      0      0     -9      0      0      0      0      0      0     97      0      0      0      0      0      0      0      0    171      0      0      0      0    123      0      9      0      0      0      0      0      0      0      0      0     13      0      0      0      0      0     -7      0      0      0      0      0      0      0      0      0      0      0      0      0     63      0      0      0      0
      9     14     13     12     11	    317    210     16     18      8     52     39      0      0      0      0      0      0      0      0      0      0      0      0     76      0    116      0      0      0      0      0      0      0      0      0      0      0      0      0      0      0      0      0      0      0     32      0      0      0      0    205      0     92     39      0      0      8      0     79      0      0      0      0      0      0     -8      0     46      0
     12     14     15     14     14	    228    118     35     35      3    -18      0      0      0      0      0      0    -30      0      0      0      0      0     13      0      0      0      9      0      0     33      0      0      0      0      0      0      0      0      0      0     40    -23     76      0      0      0      0      0      0     91      0    -42    134      0     37      0      0      0      0     66      0      0      0    -31      0      0      0      0      0
     12     10     13     11     10	    422     59     30     32     10      0      0      0      0      0      0      0    133      0    204      0      0      0      0     31      0      0      0      1      0      0      0      0     46      0      0      0      0      0      0     40      0      0      0    103     14      0    137      0     58      0      0      0      0      0      0      0      0      0      0      0      0     94      0      0      0      0      0    105      0
     10     14     12     13     14	    486    125     25     28      3    -57      0      0    119     38      0      0      0    124     95      0      0      0      0      0      0      0      0      0      0     68      0      0    121    123      0      0    131      0      0    -23      0      0      0      0      0      0      0      0      0      0      0      0      0      0      0    112      0      0      0      0      0     10      0      0    117      0      0      0      0
     12     13     13     10     12	    473    328     29     30      3      0      0      0      0      0      0      0      0      0      0      0      0      0      0     95      0      0      0      0      0     -5      0      0      0      0    159      0      0      0      0     76      0      0      0      0      0      0      0      0      0      0      0      0      0      0     34      0      0      0      0     38    -11    115      0      0      0     17      0      0      0
     12     13     11     10     13	    227     92     28     28      2      0      0      0    -45      0      0    149      0     -2     40      0      0      0      0      0    113     76      0    128      0      0     37      0     43      0      0     30      0      0      0      0    103      0      0      0      0      0    152      0      0      0      0      0      0      0    -17      0      0      0      0      0    109      0      0      0     -2    123      0      0      0
     10     13     12     10     15	    145     66     14     27     10      0     64     -3      0      0      0      0      0     57      0      0      0     64      0      0      0      0      0      0     82      0      0     37      0      0      0     21      0     13      0      0     14      0      0      0      0      0      0     47      0      0      0      0    115      0      0    103      6      0      0      0      0     -9      0     83      0      0      0      0      0
      6     15     15     13     12	    439    261     20     34      4      0      0     45    161      0      0      0      0    263     92      0      0      0      0      0      0      0      0      0      0    -24      0      0     67      0      0      0      0      0     32      0      0      0      0      0      0      0      0      0      0    175      0      0      0      0      0      0     40    262      0      0     92      0      0      0      0     22      0      0      0
      6     11     15     10     13	    398    160     33     34      8      0    211      0      0    133      0      0      0      0      0      0      0      0      0      0      0      0      0      0      0     -1      0     61     31      0      0      0     26      0      0      0    137      0      0    152      0      0      0      0      0      0    171      0      0      0    -28     37     47      0      0      0      0     78      0      0    -30      0      0      0      0
     12     11     14     13     13	    192     60     28     31      6      0      0      0      0      0      0     55      0      0     72      0      0      0      0      0      0     -9      0      0      0      0      0     89    -15    100      0     92      0      0      0      0      0      0      0      0     47      0      0      0     -8      0     12      0      0      0      0    127     32    111      0      0      0      0      0      0      0      0      0     10      0
      9     10     11     15     13	    176     98     16     23      5      0      0      0      0      0    130      0     42      0    -35      0      0      9      0      0    -33      0      0      0      0      0      0      0      0      0      0      0      0      0      0      0     58      0      0      0      0      0      0     -8      0      0      0      0      0      8      0      0      0      0      0    109      0      0      0      0      0     33      0      0     62
      9     11     13     13     15	    253     58     20     28      8      0    -36      0      0      0    164      0      0    -45      0    145      0      0      0      0      0      0      0      0      0     84      0      0      0      0    147      0      0      0      0     91      0      0      0      0      0    175      0      0      0      0    156    195      0      0      0    115      0      0      0      0      0      0      1      0      0      0    -12      0      0
      6     11     14     10     14	    428    166     11     22     10      0    171      0    181      0      0      0      0      0      0      0      0      0    -15      8      0      0     91      0      0      0      0    114      0      0      0    162    -66     -7    205      0      0      0      0      0      0      0    171     12      0    156      0      0    303      0      0      0      0      0     45      0      0      0      0      0      0     70      0      0      0
     12     10     14     13     10	    430    267     29     35      5      0      0      0     22      0      0      0      0      0    163      0      0      0      0      0      0      0      0     55      0      0      0    124      0    -29      0    188      0      0      0    -42      0      0      0      0      0      0      0      0      0    195      0      0     98      0    106     18      0    251      8      0      0      0      0      0      0      0     67      0     42
      9     15     13     11     13	    461    316     24     25      4      0    173      7      0     39      0      0    -30      0      0     50      0      0      0      0      0      0      0    179      0      0      0      0      0      0      0      0      0      0     92    134      0      0      0      0    115      0      0      0      0      0    303     98      0      0      0      0      0      0      0      5      0      0      0      0      0      0      0      0     24
      8     15     14     11     10	    314    176     31     32      9      0      0      0      0      0      0      0    120      0      0      0      0      0      0      0      0      0      0     23      0      0      0      0      0      0    -24      0    172      0     39      0      0      0      0      0      0      0      0      0      8      0      0      0      0      0      0      0      0      0      0      0      0      0      0      0     47     25      0      0      0
      6     14     13     10     11	    145     66     29     30      5      0      0      0      0      0      8      0     -3     17      0      0      0      0      0      0      0      0      0      0      0     77     20      0      0      0      0      0      0      0      0     37      0      0     34    -17      0      0    -28      0      0      0      0    106      0      0      0      0      0      0     58      0      0      0      0      0      0      0     76      0     72
     11     12     13     10     14	    196     86     29     33      5      0      0      0      0    136    109      0      0      0      0      0      0      0     -2     78      0      0      0      0      0      0    155      0      0      0      0      0      0      0      0      0      0    112      0      0    103      0     37    127      0    115      0     18      0      0      0      0      0      0      0     87      0      0     80      4      0     86      0      0      0
      9     13     14     14     13	    105     70      9     26     10      0      0      0      0      0     -8      0      0      0      0      0      0     83      0      0      0      0      0      0      0      0      0     -6      0     50      0      0      0      0      8      0      0      0      0      0      6     40     47     32      0      0      0      0      0      0      0      0      0    -18      0      0      0      0      0      0      0      0      0      0      0
      8     15     14     14     11	    334     62     34     35      4    -11      0      0      0      0    191    105      0     68      0     99      0      0      0      0      0     17      0      0      0     29    -25      0      0      0      0      0      0      0      0      0      0      0      0      0      0    262      0    111      0      0      0    251      0      0      0      0    -18      0      0     87     50      0      0      0     41      0      0      0      0
      8     15     13     14     14	    111     60     15     28      9      0     28      0     15      0      0      0      0     -2      0      0      0      0      0      0      0      0      0      0     86      0      0      0     -6      0     60      0      0      0     79      0      0      0      0      0      0      0      0      0      0      0     45      8      0      0     58      0      0      0      0      0      0      0     27      0      0     -4      0      0      0
     11     15     11     11     15	    203     97     30     34      5      0      0      0     20     84    151      0      0     -7     25      0      0      0      0      0      0     60    -23      0      0      0    145      0     51      0      0      0     42      0      0     66      0      0     38      0      0      0      0      0    109      0      0      0      5      0      0     87      0     87      0      0      0      0      0      0     32      0      0      0      0
     12     12     13     15     12	    157     96     12     12      1      0     68    -28      0      0      0     37      0      0     87      0      0      0      0      0      0      0     24    109      0     40      0      0      0      0      0      0      0      0      0      0      0      0    -11    109      0     92      0      0      0      0      0      0      0      0      0      0      0     50      0      0      0      0      0     68      0      0      0      0      0
      9     13     10     13     11	    172    113     35     35      8      0      0     77      0      0      0      0      0      0      0      0      0      0      0      0      0      0      0    111      0      0      0      0      0      0      0      0      0      0      0      0     94     10    115      0     -9      0     78      0      0      0      0      0      0      0      0      0      0      0      0      0      0      0    132    110      0      0      0      0      0
     10     14     13     15     11	    446     81     28     34     10      0      0      0      0      0      0    163      0      0      0      0      0      0    121      0      0      0    -68    128      0      0      0      0      0     16      0      0      0      0      0      0      0      0      0      0      0      0      0      0      0      1      0      0      0      0      0     80      0      0     27      0      0    132      0      0     92      0      0      0      0
      8     15     11     14     11	    360     55     28     31      1      0      0      0    -67      0      0      0    -33      0      0      0      0      0     80      0      0      0      0      0      0     33      0      0      0      0      0      0      0      0      0    -31      0      0      0      0     83      0      0      0      0      0      0      0      0      0      0      4      0      0      0      0     68    110      0      0      0      0      0     70      0
     10     11     12     14     15	    160    111     17     24      7     41      0      0     76      0      0      0      0      0      0      0      0      0      0      0      0      0      0      0      0      0      0      0      0      0     34      0      0     63      0      0      0    117      0     -2      0      0    -30      0      0      0      0      0      0     47      0      0      0     41      0     32      0      0     92      0      0      0      0      0      0
      7     10     13     10     10	    189     99     14     32      8      0      0      0      0      0      0      0    -31      0      0      0      0      0      0      9      0      0      0      0      0      0     97    -24      0      8      0      0    136      0     -8      0      0      0     17    123      0     22      0      0     33      0     70      0      0     25      0     86      0      0     -4      0      0      0      0      0      0      0      0      0      0
      6     13     14     12     10	    149     52     20     28      4      0      0      0      0      0    108      0     43      0      0      0      0     -3      0      0      0      0      0      0      0     46      0      0     39      0      0      0     42      0      0      0      0      0      0      0      0      0      0      0      0    -12      0     67      0      0     76      0      0      0      0      0      0      0      0      0      0      0      0      0      0
      7     11     10     14     12	    205     97     21     23      5      0    133      0      0      0      0    136      0      0     65    161      0      0    144    124      0     34    103      0      0      0      0     50      0      1      0    140      0      0     46      0    105      0      0      0      0      0      0     10      0      0      0      0      0      0      0      0      0      0      0      0      0      0      0     70      0      0      0      0      0
      9     12     14     12     10	    207    104     15     23      3      0     94    114      0      0      0      0      0      0      0     -6      0      0     98      0     93      0    121      0      0      0    107      0      0      0      0     27      0      0      0      0      0      0      0      0      0      0      0      0     62      0      0     42     24      0     72      0      0      0      0      0      0      0      0      0      0      0      0      0      0